c *********************************
c * Circuit generated by BenCGen
c *
c * Magnitude_55
c *
c * Ports with 1 gate(s): 57
c * Ports with 2 gate(s): 113
c * Ports with 3 gate(s): 1
c * Ports with 4 gate(s): 1
c * Ports with 5 gate(s): 1
c * Ports with 6 gate(s): 1
c * Ports with 7 gate(s): 1
c * Ports with 8 gate(s): 1
c * Ports with 9 gate(s): 1
c * Ports with 10 gate(s): 1
c * Ports with 11 gate(s): 1
c * Ports with 12 gate(s): 1
c * Ports with 13 gate(s): 1
c * Ports with 14 gate(s): 1
c * Ports with 15 gate(s): 1
c * Ports with 16 gate(s): 1
c * Ports with 17 gate(s): 1
c * Ports with 18 gate(s): 1
c * Ports with 19 gate(s): 1
c * Ports with 20 gate(s): 1
c * Ports with 21 gate(s): 1
c * Ports with 22 gate(s): 1
c * Ports with 23 gate(s): 1
c * Ports with 24 gate(s): 1
c * Ports with 25 gate(s): 1
c * Ports with 26 gate(s): 1
c * Ports with 27 gate(s): 1
c * Ports with 28 gate(s): 1
c * Ports with 29 gate(s): 1
c * Ports with 30 gate(s): 1
c * Ports with 31 gate(s): 1
c * Ports with 32 gate(s): 1
c * Ports with 33 gate(s): 1
c * Ports with 34 gate(s): 1
c * Ports with 35 gate(s): 1
c * Ports with 36 gate(s): 1
c * Ports with 37 gate(s): 1
c * Ports with 38 gate(s): 1
c * Ports with 39 gate(s): 1
c * Ports with 40 gate(s): 1
c * Ports with 41 gate(s): 1
c * Ports with 42 gate(s): 1
c * Ports with 43 gate(s): 1
c * Ports with 44 gate(s): 1
c * Ports with 45 gate(s): 1
c * Ports with 46 gate(s): 1
c * Ports with 47 gate(s): 1
c * Ports with 48 gate(s): 1
c * Ports with 49 gate(s): 1
c * Ports with 50 gate(s): 1
c * Ports with 51 gate(s): 1
c * Ports with 52 gate(s): 1
c * Ports with 53 gate(s): 1
c * Ports with 54 gate(s): 1
c * Ports with 55 gate(s): 3
c * Total gates: 225
c *********************************
p cnf 335 2210
1 115 0
-1 -115 0
1 -114 0
115 -114 0
-1 -115 114 0
56 116 0
-56 -116 0
57 117 0
-57 -117 0
58 118 0
-58 -118 0
59 119 0
-59 -119 0
60 120 0
-60 -120 0
61 121 0
-61 -121 0
62 122 0
-62 -122 0
63 123 0
-63 -123 0
64 124 0
-64 -124 0
65 125 0
-65 -125 0
66 126 0
-66 -126 0
67 127 0
-67 -127 0
68 128 0
-68 -128 0
69 129 0
-69 -129 0
70 130 0
-70 -130 0
71 131 0
-71 -131 0
72 132 0
-72 -132 0
73 133 0
-73 -133 0
74 134 0
-74 -134 0
75 135 0
-75 -135 0
76 136 0
-76 -136 0
77 137 0
-77 -137 0
78 138 0
-78 -138 0
79 139 0
-79 -139 0
80 140 0
-80 -140 0
81 141 0
-81 -141 0
82 142 0
-82 -142 0
83 143 0
-83 -143 0
84 144 0
-84 -144 0
85 145 0
-85 -145 0
86 146 0
-86 -146 0
87 147 0
-87 -147 0
88 148 0
-88 -148 0
89 149 0
-89 -149 0
90 150 0
-90 -150 0
91 151 0
-91 -151 0
92 152 0
-92 -152 0
93 153 0
-93 -153 0
94 154 0
-94 -154 0
95 155 0
-95 -155 0
96 156 0
-96 -156 0
97 157 0
-97 -157 0
98 158 0
-98 -158 0
99 159 0
-99 -159 0
100 160 0
-100 -160 0
101 161 0
-101 -161 0
102 162 0
-102 -162 0
103 163 0
-103 -163 0
104 164 0
-104 -164 0
105 165 0
-105 -165 0
106 166 0
-106 -166 0
107 167 0
-107 -167 0
108 168 0
-108 -168 0
109 169 0
-109 -169 0
110 170 0
-110 -170 0
1 56 226 0
-1 56 -226 0
1 -56 -226 0
-1 -56 226 0
1 -171 0
116 -171 0
-1 -116 171 0
2 57 227 0
-2 57 -227 0
2 -57 -227 0
-2 -57 227 0
2 -172 0
117 -172 0
-2 -117 172 0
3 58 228 0
-3 58 -228 0
3 -58 -228 0
-3 -58 228 0
3 -173 0
118 -173 0
-3 -118 173 0
4 59 229 0
-4 59 -229 0
4 -59 -229 0
-4 -59 229 0
4 -174 0
119 -174 0
-4 -119 174 0
5 60 230 0
-5 60 -230 0
5 -60 -230 0
-5 -60 230 0
5 -175 0
120 -175 0
-5 -120 175 0
6 61 231 0
-6 61 -231 0
6 -61 -231 0
-6 -61 231 0
6 -176 0
121 -176 0
-6 -121 176 0
7 62 232 0
-7 62 -232 0
7 -62 -232 0
-7 -62 232 0
7 -177 0
122 -177 0
-7 -122 177 0
8 63 233 0
-8 63 -233 0
8 -63 -233 0
-8 -63 233 0
8 -178 0
123 -178 0
-8 -123 178 0
9 64 234 0
-9 64 -234 0
9 -64 -234 0
-9 -64 234 0
9 -179 0
124 -179 0
-9 -124 179 0
10 65 235 0
-10 65 -235 0
10 -65 -235 0
-10 -65 235 0
10 -180 0
125 -180 0
-10 -125 180 0
11 66 236 0
-11 66 -236 0
11 -66 -236 0
-11 -66 236 0
11 -181 0
126 -181 0
-11 -126 181 0
12 67 237 0
-12 67 -237 0
12 -67 -237 0
-12 -67 237 0
12 -182 0
127 -182 0
-12 -127 182 0
13 68 238 0
-13 68 -238 0
13 -68 -238 0
-13 -68 238 0
13 -183 0
128 -183 0
-13 -128 183 0
14 69 239 0
-14 69 -239 0
14 -69 -239 0
-14 -69 239 0
14 -184 0
129 -184 0
-14 -129 184 0
15 70 240 0
-15 70 -240 0
15 -70 -240 0
-15 -70 240 0
15 -185 0
130 -185 0
-15 -130 185 0
16 71 241 0
-16 71 -241 0
16 -71 -241 0
-16 -71 241 0
16 -186 0
131 -186 0
-16 -131 186 0
17 72 242 0
-17 72 -242 0
17 -72 -242 0
-17 -72 242 0
17 -187 0
132 -187 0
-17 -132 187 0
18 73 243 0
-18 73 -243 0
18 -73 -243 0
-18 -73 243 0
18 -188 0
133 -188 0
-18 -133 188 0
19 74 244 0
-19 74 -244 0
19 -74 -244 0
-19 -74 244 0
19 -189 0
134 -189 0
-19 -134 189 0
20 75 245 0
-20 75 -245 0
20 -75 -245 0
-20 -75 245 0
20 -190 0
135 -190 0
-20 -135 190 0
21 76 246 0
-21 76 -246 0
21 -76 -246 0
-21 -76 246 0
21 -191 0
136 -191 0
-21 -136 191 0
22 77 247 0
-22 77 -247 0
22 -77 -247 0
-22 -77 247 0
22 -192 0
137 -192 0
-22 -137 192 0
23 78 248 0
-23 78 -248 0
23 -78 -248 0
-23 -78 248 0
23 -193 0
138 -193 0
-23 -138 193 0
24 79 249 0
-24 79 -249 0
24 -79 -249 0
-24 -79 249 0
24 -194 0
139 -194 0
-24 -139 194 0
25 80 250 0
-25 80 -250 0
25 -80 -250 0
-25 -80 250 0
25 -195 0
140 -195 0
-25 -140 195 0
26 81 251 0
-26 81 -251 0
26 -81 -251 0
-26 -81 251 0
26 -196 0
141 -196 0
-26 -141 196 0
27 82 252 0
-27 82 -252 0
27 -82 -252 0
-27 -82 252 0
27 -197 0
142 -197 0
-27 -142 197 0
28 83 253 0
-28 83 -253 0
28 -83 -253 0
-28 -83 253 0
28 -198 0
143 -198 0
-28 -143 198 0
29 84 254 0
-29 84 -254 0
29 -84 -254 0
-29 -84 254 0
29 -199 0
144 -199 0
-29 -144 199 0
30 85 255 0
-30 85 -255 0
30 -85 -255 0
-30 -85 255 0
30 -200 0
145 -200 0
-30 -145 200 0
31 86 256 0
-31 86 -256 0
31 -86 -256 0
-31 -86 256 0
31 -201 0
146 -201 0
-31 -146 201 0
32 87 257 0
-32 87 -257 0
32 -87 -257 0
-32 -87 257 0
32 -202 0
147 -202 0
-32 -147 202 0
33 88 258 0
-33 88 -258 0
33 -88 -258 0
-33 -88 258 0
33 -203 0
148 -203 0
-33 -148 203 0
34 89 259 0
-34 89 -259 0
34 -89 -259 0
-34 -89 259 0
34 -204 0
149 -204 0
-34 -149 204 0
35 90 260 0
-35 90 -260 0
35 -90 -260 0
-35 -90 260 0
35 -205 0
150 -205 0
-35 -150 205 0
36 91 261 0
-36 91 -261 0
36 -91 -261 0
-36 -91 261 0
36 -206 0
151 -206 0
-36 -151 206 0
37 92 262 0
-37 92 -262 0
37 -92 -262 0
-37 -92 262 0
37 -207 0
152 -207 0
-37 -152 207 0
38 93 263 0
-38 93 -263 0
38 -93 -263 0
-38 -93 263 0
38 -208 0
153 -208 0
-38 -153 208 0
39 94 264 0
-39 94 -264 0
39 -94 -264 0
-39 -94 264 0
39 -209 0
154 -209 0
-39 -154 209 0
40 95 265 0
-40 95 -265 0
40 -95 -265 0
-40 -95 265 0
40 -210 0
155 -210 0
-40 -155 210 0
41 96 266 0
-41 96 -266 0
41 -96 -266 0
-41 -96 266 0
41 -211 0
156 -211 0
-41 -156 211 0
42 97 267 0
-42 97 -267 0
42 -97 -267 0
-42 -97 267 0
42 -212 0
157 -212 0
-42 -157 212 0
43 98 268 0
-43 98 -268 0
43 -98 -268 0
-43 -98 268 0
43 -213 0
158 -213 0
-43 -158 213 0
44 99 269 0
-44 99 -269 0
44 -99 -269 0
-44 -99 269 0
44 -214 0
159 -214 0
-44 -159 214 0
45 100 270 0
-45 100 -270 0
45 -100 -270 0
-45 -100 270 0
45 -215 0
160 -215 0
-45 -160 215 0
46 101 271 0
-46 101 -271 0
46 -101 -271 0
-46 -101 271 0
46 -216 0
161 -216 0
-46 -161 216 0
47 102 272 0
-47 102 -272 0
47 -102 -272 0
-47 -102 272 0
47 -217 0
162 -217 0
-47 -162 217 0
48 103 273 0
-48 103 -273 0
48 -103 -273 0
-48 -103 273 0
48 -218 0
163 -218 0
-48 -163 218 0
49 104 274 0
-49 104 -274 0
49 -104 -274 0
-49 -104 274 0
49 -219 0
164 -219 0
-49 -164 219 0
50 105 275 0
-50 105 -275 0
50 -105 -275 0
-50 -105 275 0
50 -220 0
165 -220 0
-50 -165 220 0
51 106 276 0
-51 106 -276 0
51 -106 -276 0
-51 -106 276 0
51 -221 0
166 -221 0
-51 -166 221 0
52 107 277 0
-52 107 -277 0
52 -107 -277 0
-52 -107 277 0
52 -222 0
167 -222 0
-52 -167 222 0
53 108 278 0
-53 108 -278 0
53 -108 -278 0
-53 -108 278 0
53 -223 0
168 -223 0
-53 -168 223 0
54 109 279 0
-54 109 -279 0
54 -109 -279 0
-54 -109 279 0
54 -224 0
169 -224 0
-54 -169 224 0
55 110 280 0
-55 110 -280 0
55 -110 -280 0
-55 -110 280 0
55 -225 0
170 -225 0
-55 -170 225 0
171 -281 0
227 -281 0
228 -281 0
229 -281 0
230 -281 0
231 -281 0
232 -281 0
233 -281 0
234 -281 0
235 -281 0
236 -281 0
237 -281 0
238 -281 0
239 -281 0
240 -281 0
241 -281 0
242 -281 0
243 -281 0
244 -281 0
245 -281 0
246 -281 0
247 -281 0
248 -281 0
249 -281 0
250 -281 0
251 -281 0
252 -281 0
253 -281 0
254 -281 0
255 -281 0
256 -281 0
257 -281 0
258 -281 0
259 -281 0
260 -281 0
261 -281 0
262 -281 0
263 -281 0
264 -281 0
265 -281 0
266 -281 0
267 -281 0
268 -281 0
269 -281 0
270 -281 0
271 -281 0
272 -281 0
273 -281 0
274 -281 0
275 -281 0
276 -281 0
277 -281 0
278 -281 0
279 -281 0
280 -281 0
-171 -227 -228 -229 -230 -231 -232 -233 -234 -235 -236 -237 -238 -239 -240 -241 -242 -243 -244 -245 -246 -247 -248 -249 -250 -251 -252 -253 -254 -255 -256 -257 -258 -259 -260 -261 -262 -263 -264 -265 -266 -267 -268 -269 -270 -271 -272 -273 -274 -275 -276 -277 -278 -279 -280 281 0
172 -282 0
228 -282 0
229 -282 0
230 -282 0
231 -282 0
232 -282 0
233 -282 0
234 -282 0
235 -282 0
236 -282 0
237 -282 0
238 -282 0
239 -282 0
240 -282 0
241 -282 0
242 -282 0
243 -282 0
244 -282 0
245 -282 0
246 -282 0
247 -282 0
248 -282 0
249 -282 0
250 -282 0
251 -282 0
252 -282 0
253 -282 0
254 -282 0
255 -282 0
256 -282 0
257 -282 0
258 -282 0
259 -282 0
260 -282 0
261 -282 0
262 -282 0
263 -282 0
264 -282 0
265 -282 0
266 -282 0
267 -282 0
268 -282 0
269 -282 0
270 -282 0
271 -282 0
272 -282 0
273 -282 0
274 -282 0
275 -282 0
276 -282 0
277 -282 0
278 -282 0
279 -282 0
280 -282 0
-172 -228 -229 -230 -231 -232 -233 -234 -235 -236 -237 -238 -239 -240 -241 -242 -243 -244 -245 -246 -247 -248 -249 -250 -251 -252 -253 -254 -255 -256 -257 -258 -259 -260 -261 -262 -263 -264 -265 -266 -267 -268 -269 -270 -271 -272 -273 -274 -275 -276 -277 -278 -279 -280 282 0
173 -283 0
229 -283 0
230 -283 0
231 -283 0
232 -283 0
233 -283 0
234 -283 0
235 -283 0
236 -283 0
237 -283 0
238 -283 0
239 -283 0
240 -283 0
241 -283 0
242 -283 0
243 -283 0
244 -283 0
245 -283 0
246 -283 0
247 -283 0
248 -283 0
249 -283 0
250 -283 0
251 -283 0
252 -283 0
253 -283 0
254 -283 0
255 -283 0
256 -283 0
257 -283 0
258 -283 0
259 -283 0
260 -283 0
261 -283 0
262 -283 0
263 -283 0
264 -283 0
265 -283 0
266 -283 0
267 -283 0
268 -283 0
269 -283 0
270 -283 0
271 -283 0
272 -283 0
273 -283 0
274 -283 0
275 -283 0
276 -283 0
277 -283 0
278 -283 0
279 -283 0
280 -283 0
-173 -229 -230 -231 -232 -233 -234 -235 -236 -237 -238 -239 -240 -241 -242 -243 -244 -245 -246 -247 -248 -249 -250 -251 -252 -253 -254 -255 -256 -257 -258 -259 -260 -261 -262 -263 -264 -265 -266 -267 -268 -269 -270 -271 -272 -273 -274 -275 -276 -277 -278 -279 -280 283 0
174 -284 0
230 -284 0
231 -284 0
232 -284 0
233 -284 0
234 -284 0
235 -284 0
236 -284 0
237 -284 0
238 -284 0
239 -284 0
240 -284 0
241 -284 0
242 -284 0
243 -284 0
244 -284 0
245 -284 0
246 -284 0
247 -284 0
248 -284 0
249 -284 0
250 -284 0
251 -284 0
252 -284 0
253 -284 0
254 -284 0
255 -284 0
256 -284 0
257 -284 0
258 -284 0
259 -284 0
260 -284 0
261 -284 0
262 -284 0
263 -284 0
264 -284 0
265 -284 0
266 -284 0
267 -284 0
268 -284 0
269 -284 0
270 -284 0
271 -284 0
272 -284 0
273 -284 0
274 -284 0
275 -284 0
276 -284 0
277 -284 0
278 -284 0
279 -284 0
280 -284 0
-174 -230 -231 -232 -233 -234 -235 -236 -237 -238 -239 -240 -241 -242 -243 -244 -245 -246 -247 -248 -249 -250 -251 -252 -253 -254 -255 -256 -257 -258 -259 -260 -261 -262 -263 -264 -265 -266 -267 -268 -269 -270 -271 -272 -273 -274 -275 -276 -277 -278 -279 -280 284 0
175 -285 0
231 -285 0
232 -285 0
233 -285 0
234 -285 0
235 -285 0
236 -285 0
237 -285 0
238 -285 0
239 -285 0
240 -285 0
241 -285 0
242 -285 0
243 -285 0
244 -285 0
245 -285 0
246 -285 0
247 -285 0
248 -285 0
249 -285 0
250 -285 0
251 -285 0
252 -285 0
253 -285 0
254 -285 0
255 -285 0
256 -285 0
257 -285 0
258 -285 0
259 -285 0
260 -285 0
261 -285 0
262 -285 0
263 -285 0
264 -285 0
265 -285 0
266 -285 0
267 -285 0
268 -285 0
269 -285 0
270 -285 0
271 -285 0
272 -285 0
273 -285 0
274 -285 0
275 -285 0
276 -285 0
277 -285 0
278 -285 0
279 -285 0
280 -285 0
-175 -231 -232 -233 -234 -235 -236 -237 -238 -239 -240 -241 -242 -243 -244 -245 -246 -247 -248 -249 -250 -251 -252 -253 -254 -255 -256 -257 -258 -259 -260 -261 -262 -263 -264 -265 -266 -267 -268 -269 -270 -271 -272 -273 -274 -275 -276 -277 -278 -279 -280 285 0
176 -286 0
232 -286 0
233 -286 0
234 -286 0
235 -286 0
236 -286 0
237 -286 0
238 -286 0
239 -286 0
240 -286 0
241 -286 0
242 -286 0
243 -286 0
244 -286 0
245 -286 0
246 -286 0
247 -286 0
248 -286 0
249 -286 0
250 -286 0
251 -286 0
252 -286 0
253 -286 0
254 -286 0
255 -286 0
256 -286 0
257 -286 0
258 -286 0
259 -286 0
260 -286 0
261 -286 0
262 -286 0
263 -286 0
264 -286 0
265 -286 0
266 -286 0
267 -286 0
268 -286 0
269 -286 0
270 -286 0
271 -286 0
272 -286 0
273 -286 0
274 -286 0
275 -286 0
276 -286 0
277 -286 0
278 -286 0
279 -286 0
280 -286 0
-176 -232 -233 -234 -235 -236 -237 -238 -239 -240 -241 -242 -243 -244 -245 -246 -247 -248 -249 -250 -251 -252 -253 -254 -255 -256 -257 -258 -259 -260 -261 -262 -263 -264 -265 -266 -267 -268 -269 -270 -271 -272 -273 -274 -275 -276 -277 -278 -279 -280 286 0
177 -287 0
233 -287 0
234 -287 0
235 -287 0
236 -287 0
237 -287 0
238 -287 0
239 -287 0
240 -287 0
241 -287 0
242 -287 0
243 -287 0
244 -287 0
245 -287 0
246 -287 0
247 -287 0
248 -287 0
249 -287 0
250 -287 0
251 -287 0
252 -287 0
253 -287 0
254 -287 0
255 -287 0
256 -287 0
257 -287 0
258 -287 0
259 -287 0
260 -287 0
261 -287 0
262 -287 0
263 -287 0
264 -287 0
265 -287 0
266 -287 0
267 -287 0
268 -287 0
269 -287 0
270 -287 0
271 -287 0
272 -287 0
273 -287 0
274 -287 0
275 -287 0
276 -287 0
277 -287 0
278 -287 0
279 -287 0
280 -287 0
-177 -233 -234 -235 -236 -237 -238 -239 -240 -241 -242 -243 -244 -245 -246 -247 -248 -249 -250 -251 -252 -253 -254 -255 -256 -257 -258 -259 -260 -261 -262 -263 -264 -265 -266 -267 -268 -269 -270 -271 -272 -273 -274 -275 -276 -277 -278 -279 -280 287 0
178 -288 0
234 -288 0
235 -288 0
236 -288 0
237 -288 0
238 -288 0
239 -288 0
240 -288 0
241 -288 0
242 -288 0
243 -288 0
244 -288 0
245 -288 0
246 -288 0
247 -288 0
248 -288 0
249 -288 0
250 -288 0
251 -288 0
252 -288 0
253 -288 0
254 -288 0
255 -288 0
256 -288 0
257 -288 0
258 -288 0
259 -288 0
260 -288 0
261 -288 0
262 -288 0
263 -288 0
264 -288 0
265 -288 0
266 -288 0
267 -288 0
268 -288 0
269 -288 0
270 -288 0
271 -288 0
272 -288 0
273 -288 0
274 -288 0
275 -288 0
276 -288 0
277 -288 0
278 -288 0
279 -288 0
280 -288 0
-178 -234 -235 -236 -237 -238 -239 -240 -241 -242 -243 -244 -245 -246 -247 -248 -249 -250 -251 -252 -253 -254 -255 -256 -257 -258 -259 -260 -261 -262 -263 -264 -265 -266 -267 -268 -269 -270 -271 -272 -273 -274 -275 -276 -277 -278 -279 -280 288 0
179 -289 0
235 -289 0
236 -289 0
237 -289 0
238 -289 0
239 -289 0
240 -289 0
241 -289 0
242 -289 0
243 -289 0
244 -289 0
245 -289 0
246 -289 0
247 -289 0
248 -289 0
249 -289 0
250 -289 0
251 -289 0
252 -289 0
253 -289 0
254 -289 0
255 -289 0
256 -289 0
257 -289 0
258 -289 0
259 -289 0
260 -289 0
261 -289 0
262 -289 0
263 -289 0
264 -289 0
265 -289 0
266 -289 0
267 -289 0
268 -289 0
269 -289 0
270 -289 0
271 -289 0
272 -289 0
273 -289 0
274 -289 0
275 -289 0
276 -289 0
277 -289 0
278 -289 0
279 -289 0
280 -289 0
-179 -235 -236 -237 -238 -239 -240 -241 -242 -243 -244 -245 -246 -247 -248 -249 -250 -251 -252 -253 -254 -255 -256 -257 -258 -259 -260 -261 -262 -263 -264 -265 -266 -267 -268 -269 -270 -271 -272 -273 -274 -275 -276 -277 -278 -279 -280 289 0
180 -290 0
236 -290 0
237 -290 0
238 -290 0
239 -290 0
240 -290 0
241 -290 0
242 -290 0
243 -290 0
244 -290 0
245 -290 0
246 -290 0
247 -290 0
248 -290 0
249 -290 0
250 -290 0
251 -290 0
252 -290 0
253 -290 0
254 -290 0
255 -290 0
256 -290 0
257 -290 0
258 -290 0
259 -290 0
260 -290 0
261 -290 0
262 -290 0
263 -290 0
264 -290 0
265 -290 0
266 -290 0
267 -290 0
268 -290 0
269 -290 0
270 -290 0
271 -290 0
272 -290 0
273 -290 0
274 -290 0
275 -290 0
276 -290 0
277 -290 0
278 -290 0
279 -290 0
280 -290 0
-180 -236 -237 -238 -239 -240 -241 -242 -243 -244 -245 -246 -247 -248 -249 -250 -251 -252 -253 -254 -255 -256 -257 -258 -259 -260 -261 -262 -263 -264 -265 -266 -267 -268 -269 -270 -271 -272 -273 -274 -275 -276 -277 -278 -279 -280 290 0
181 -291 0
237 -291 0
238 -291 0
239 -291 0
240 -291 0
241 -291 0
242 -291 0
243 -291 0
244 -291 0
245 -291 0
246 -291 0
247 -291 0
248 -291 0
249 -291 0
250 -291 0
251 -291 0
252 -291 0
253 -291 0
254 -291 0
255 -291 0
256 -291 0
257 -291 0
258 -291 0
259 -291 0
260 -291 0
261 -291 0
262 -291 0
263 -291 0
264 -291 0
265 -291 0
266 -291 0
267 -291 0
268 -291 0
269 -291 0
270 -291 0
271 -291 0
272 -291 0
273 -291 0
274 -291 0
275 -291 0
276 -291 0
277 -291 0
278 -291 0
279 -291 0
280 -291 0
-181 -237 -238 -239 -240 -241 -242 -243 -244 -245 -246 -247 -248 -249 -250 -251 -252 -253 -254 -255 -256 -257 -258 -259 -260 -261 -262 -263 -264 -265 -266 -267 -268 -269 -270 -271 -272 -273 -274 -275 -276 -277 -278 -279 -280 291 0
182 -292 0
238 -292 0
239 -292 0
240 -292 0
241 -292 0
242 -292 0
243 -292 0
244 -292 0
245 -292 0
246 -292 0
247 -292 0
248 -292 0
249 -292 0
250 -292 0
251 -292 0
252 -292 0
253 -292 0
254 -292 0
255 -292 0
256 -292 0
257 -292 0
258 -292 0
259 -292 0
260 -292 0
261 -292 0
262 -292 0
263 -292 0
264 -292 0
265 -292 0
266 -292 0
267 -292 0
268 -292 0
269 -292 0
270 -292 0
271 -292 0
272 -292 0
273 -292 0
274 -292 0
275 -292 0
276 -292 0
277 -292 0
278 -292 0
279 -292 0
280 -292 0
-182 -238 -239 -240 -241 -242 -243 -244 -245 -246 -247 -248 -249 -250 -251 -252 -253 -254 -255 -256 -257 -258 -259 -260 -261 -262 -263 -264 -265 -266 -267 -268 -269 -270 -271 -272 -273 -274 -275 -276 -277 -278 -279 -280 292 0
183 -293 0
239 -293 0
240 -293 0
241 -293 0
242 -293 0
243 -293 0
244 -293 0
245 -293 0
246 -293 0
247 -293 0
248 -293 0
249 -293 0
250 -293 0
251 -293 0
252 -293 0
253 -293 0
254 -293 0
255 -293 0
256 -293 0
257 -293 0
258 -293 0
259 -293 0
260 -293 0
261 -293 0
262 -293 0
263 -293 0
264 -293 0
265 -293 0
266 -293 0
267 -293 0
268 -293 0
269 -293 0
270 -293 0
271 -293 0
272 -293 0
273 -293 0
274 -293 0
275 -293 0
276 -293 0
277 -293 0
278 -293 0
279 -293 0
280 -293 0
-183 -239 -240 -241 -242 -243 -244 -245 -246 -247 -248 -249 -250 -251 -252 -253 -254 -255 -256 -257 -258 -259 -260 -261 -262 -263 -264 -265 -266 -267 -268 -269 -270 -271 -272 -273 -274 -275 -276 -277 -278 -279 -280 293 0
184 -294 0
240 -294 0
241 -294 0
242 -294 0
243 -294 0
244 -294 0
245 -294 0
246 -294 0
247 -294 0
248 -294 0
249 -294 0
250 -294 0
251 -294 0
252 -294 0
253 -294 0
254 -294 0
255 -294 0
256 -294 0
257 -294 0
258 -294 0
259 -294 0
260 -294 0
261 -294 0
262 -294 0
263 -294 0
264 -294 0
265 -294 0
266 -294 0
267 -294 0
268 -294 0
269 -294 0
270 -294 0
271 -294 0
272 -294 0
273 -294 0
274 -294 0
275 -294 0
276 -294 0
277 -294 0
278 -294 0
279 -294 0
280 -294 0
-184 -240 -241 -242 -243 -244 -245 -246 -247 -248 -249 -250 -251 -252 -253 -254 -255 -256 -257 -258 -259 -260 -261 -262 -263 -264 -265 -266 -267 -268 -269 -270 -271 -272 -273 -274 -275 -276 -277 -278 -279 -280 294 0
185 -295 0
241 -295 0
242 -295 0
243 -295 0
244 -295 0
245 -295 0
246 -295 0
247 -295 0
248 -295 0
249 -295 0
250 -295 0
251 -295 0
252 -295 0
253 -295 0
254 -295 0
255 -295 0
256 -295 0
257 -295 0
258 -295 0
259 -295 0
260 -295 0
261 -295 0
262 -295 0
263 -295 0
264 -295 0
265 -295 0
266 -295 0
267 -295 0
268 -295 0
269 -295 0
270 -295 0
271 -295 0
272 -295 0
273 -295 0
274 -295 0
275 -295 0
276 -295 0
277 -295 0
278 -295 0
279 -295 0
280 -295 0
-185 -241 -242 -243 -244 -245 -246 -247 -248 -249 -250 -251 -252 -253 -254 -255 -256 -257 -258 -259 -260 -261 -262 -263 -264 -265 -266 -267 -268 -269 -270 -271 -272 -273 -274 -275 -276 -277 -278 -279 -280 295 0
186 -296 0
242 -296 0
243 -296 0
244 -296 0
245 -296 0
246 -296 0
247 -296 0
248 -296 0
249 -296 0
250 -296 0
251 -296 0
252 -296 0
253 -296 0
254 -296 0
255 -296 0
256 -296 0
257 -296 0
258 -296 0
259 -296 0
260 -296 0
261 -296 0
262 -296 0
263 -296 0
264 -296 0
265 -296 0
266 -296 0
267 -296 0
268 -296 0
269 -296 0
270 -296 0
271 -296 0
272 -296 0
273 -296 0
274 -296 0
275 -296 0
276 -296 0
277 -296 0
278 -296 0
279 -296 0
280 -296 0
-186 -242 -243 -244 -245 -246 -247 -248 -249 -250 -251 -252 -253 -254 -255 -256 -257 -258 -259 -260 -261 -262 -263 -264 -265 -266 -267 -268 -269 -270 -271 -272 -273 -274 -275 -276 -277 -278 -279 -280 296 0
187 -297 0
243 -297 0
244 -297 0
245 -297 0
246 -297 0
247 -297 0
248 -297 0
249 -297 0
250 -297 0
251 -297 0
252 -297 0
253 -297 0
254 -297 0
255 -297 0
256 -297 0
257 -297 0
258 -297 0
259 -297 0
260 -297 0
261 -297 0
262 -297 0
263 -297 0
264 -297 0
265 -297 0
266 -297 0
267 -297 0
268 -297 0
269 -297 0
270 -297 0
271 -297 0
272 -297 0
273 -297 0
274 -297 0
275 -297 0
276 -297 0
277 -297 0
278 -297 0
279 -297 0
280 -297 0
-187 -243 -244 -245 -246 -247 -248 -249 -250 -251 -252 -253 -254 -255 -256 -257 -258 -259 -260 -261 -262 -263 -264 -265 -266 -267 -268 -269 -270 -271 -272 -273 -274 -275 -276 -277 -278 -279 -280 297 0
188 -298 0
244 -298 0
245 -298 0
246 -298 0
247 -298 0
248 -298 0
249 -298 0
250 -298 0
251 -298 0
252 -298 0
253 -298 0
254 -298 0
255 -298 0
256 -298 0
257 -298 0
258 -298 0
259 -298 0
260 -298 0
261 -298 0
262 -298 0
263 -298 0
264 -298 0
265 -298 0
266 -298 0
267 -298 0
268 -298 0
269 -298 0
270 -298 0
271 -298 0
272 -298 0
273 -298 0
274 -298 0
275 -298 0
276 -298 0
277 -298 0
278 -298 0
279 -298 0
280 -298 0
-188 -244 -245 -246 -247 -248 -249 -250 -251 -252 -253 -254 -255 -256 -257 -258 -259 -260 -261 -262 -263 -264 -265 -266 -267 -268 -269 -270 -271 -272 -273 -274 -275 -276 -277 -278 -279 -280 298 0
189 -299 0
245 -299 0
246 -299 0
247 -299 0
248 -299 0
249 -299 0
250 -299 0
251 -299 0
252 -299 0
253 -299 0
254 -299 0
255 -299 0
256 -299 0
257 -299 0
258 -299 0
259 -299 0
260 -299 0
261 -299 0
262 -299 0
263 -299 0
264 -299 0
265 -299 0
266 -299 0
267 -299 0
268 -299 0
269 -299 0
270 -299 0
271 -299 0
272 -299 0
273 -299 0
274 -299 0
275 -299 0
276 -299 0
277 -299 0
278 -299 0
279 -299 0
280 -299 0
-189 -245 -246 -247 -248 -249 -250 -251 -252 -253 -254 -255 -256 -257 -258 -259 -260 -261 -262 -263 -264 -265 -266 -267 -268 -269 -270 -271 -272 -273 -274 -275 -276 -277 -278 -279 -280 299 0
190 -300 0
246 -300 0
247 -300 0
248 -300 0
249 -300 0
250 -300 0
251 -300 0
252 -300 0
253 -300 0
254 -300 0
255 -300 0
256 -300 0
257 -300 0
258 -300 0
259 -300 0
260 -300 0
261 -300 0
262 -300 0
263 -300 0
264 -300 0
265 -300 0
266 -300 0
267 -300 0
268 -300 0
269 -300 0
270 -300 0
271 -300 0
272 -300 0
273 -300 0
274 -300 0
275 -300 0
276 -300 0
277 -300 0
278 -300 0
279 -300 0
280 -300 0
-190 -246 -247 -248 -249 -250 -251 -252 -253 -254 -255 -256 -257 -258 -259 -260 -261 -262 -263 -264 -265 -266 -267 -268 -269 -270 -271 -272 -273 -274 -275 -276 -277 -278 -279 -280 300 0
191 -301 0
247 -301 0
248 -301 0
249 -301 0
250 -301 0
251 -301 0
252 -301 0
253 -301 0
254 -301 0
255 -301 0
256 -301 0
257 -301 0
258 -301 0
259 -301 0
260 -301 0
261 -301 0
262 -301 0
263 -301 0
264 -301 0
265 -301 0
266 -301 0
267 -301 0
268 -301 0
269 -301 0
270 -301 0
271 -301 0
272 -301 0
273 -301 0
274 -301 0
275 -301 0
276 -301 0
277 -301 0
278 -301 0
279 -301 0
280 -301 0
-191 -247 -248 -249 -250 -251 -252 -253 -254 -255 -256 -257 -258 -259 -260 -261 -262 -263 -264 -265 -266 -267 -268 -269 -270 -271 -272 -273 -274 -275 -276 -277 -278 -279 -280 301 0
192 -302 0
248 -302 0
249 -302 0
250 -302 0
251 -302 0
252 -302 0
253 -302 0
254 -302 0
255 -302 0
256 -302 0
257 -302 0
258 -302 0
259 -302 0
260 -302 0
261 -302 0
262 -302 0
263 -302 0
264 -302 0
265 -302 0
266 -302 0
267 -302 0
268 -302 0
269 -302 0
270 -302 0
271 -302 0
272 -302 0
273 -302 0
274 -302 0
275 -302 0
276 -302 0
277 -302 0
278 -302 0
279 -302 0
280 -302 0
-192 -248 -249 -250 -251 -252 -253 -254 -255 -256 -257 -258 -259 -260 -261 -262 -263 -264 -265 -266 -267 -268 -269 -270 -271 -272 -273 -274 -275 -276 -277 -278 -279 -280 302 0
193 -303 0
249 -303 0
250 -303 0
251 -303 0
252 -303 0
253 -303 0
254 -303 0
255 -303 0
256 -303 0
257 -303 0
258 -303 0
259 -303 0
260 -303 0
261 -303 0
262 -303 0
263 -303 0
264 -303 0
265 -303 0
266 -303 0
267 -303 0
268 -303 0
269 -303 0
270 -303 0
271 -303 0
272 -303 0
273 -303 0
274 -303 0
275 -303 0
276 -303 0
277 -303 0
278 -303 0
279 -303 0
280 -303 0
-193 -249 -250 -251 -252 -253 -254 -255 -256 -257 -258 -259 -260 -261 -262 -263 -264 -265 -266 -267 -268 -269 -270 -271 -272 -273 -274 -275 -276 -277 -278 -279 -280 303 0
194 -304 0
250 -304 0
251 -304 0
252 -304 0
253 -304 0
254 -304 0
255 -304 0
256 -304 0
257 -304 0
258 -304 0
259 -304 0
260 -304 0
261 -304 0
262 -304 0
263 -304 0
264 -304 0
265 -304 0
266 -304 0
267 -304 0
268 -304 0
269 -304 0
270 -304 0
271 -304 0
272 -304 0
273 -304 0
274 -304 0
275 -304 0
276 -304 0
277 -304 0
278 -304 0
279 -304 0
280 -304 0
-194 -250 -251 -252 -253 -254 -255 -256 -257 -258 -259 -260 -261 -262 -263 -264 -265 -266 -267 -268 -269 -270 -271 -272 -273 -274 -275 -276 -277 -278 -279 -280 304 0
195 -305 0
251 -305 0
252 -305 0
253 -305 0
254 -305 0
255 -305 0
256 -305 0
257 -305 0
258 -305 0
259 -305 0
260 -305 0
261 -305 0
262 -305 0
263 -305 0
264 -305 0
265 -305 0
266 -305 0
267 -305 0
268 -305 0
269 -305 0
270 -305 0
271 -305 0
272 -305 0
273 -305 0
274 -305 0
275 -305 0
276 -305 0
277 -305 0
278 -305 0
279 -305 0
280 -305 0
-195 -251 -252 -253 -254 -255 -256 -257 -258 -259 -260 -261 -262 -263 -264 -265 -266 -267 -268 -269 -270 -271 -272 -273 -274 -275 -276 -277 -278 -279 -280 305 0
196 -306 0
252 -306 0
253 -306 0
254 -306 0
255 -306 0
256 -306 0
257 -306 0
258 -306 0
259 -306 0
260 -306 0
261 -306 0
262 -306 0
263 -306 0
264 -306 0
265 -306 0
266 -306 0
267 -306 0
268 -306 0
269 -306 0
270 -306 0
271 -306 0
272 -306 0
273 -306 0
274 -306 0
275 -306 0
276 -306 0
277 -306 0
278 -306 0
279 -306 0
280 -306 0
-196 -252 -253 -254 -255 -256 -257 -258 -259 -260 -261 -262 -263 -264 -265 -266 -267 -268 -269 -270 -271 -272 -273 -274 -275 -276 -277 -278 -279 -280 306 0
197 -307 0
253 -307 0
254 -307 0
255 -307 0
256 -307 0
257 -307 0
258 -307 0
259 -307 0
260 -307 0
261 -307 0
262 -307 0
263 -307 0
264 -307 0
265 -307 0
266 -307 0
267 -307 0
268 -307 0
269 -307 0
270 -307 0
271 -307 0
272 -307 0
273 -307 0
274 -307 0
275 -307 0
276 -307 0
277 -307 0
278 -307 0
279 -307 0
280 -307 0
-197 -253 -254 -255 -256 -257 -258 -259 -260 -261 -262 -263 -264 -265 -266 -267 -268 -269 -270 -271 -272 -273 -274 -275 -276 -277 -278 -279 -280 307 0
198 -308 0
254 -308 0
255 -308 0
256 -308 0
257 -308 0
258 -308 0
259 -308 0
260 -308 0
261 -308 0
262 -308 0
263 -308 0
264 -308 0
265 -308 0
266 -308 0
267 -308 0
268 -308 0
269 -308 0
270 -308 0
271 -308 0
272 -308 0
273 -308 0
274 -308 0
275 -308 0
276 -308 0
277 -308 0
278 -308 0
279 -308 0
280 -308 0
-198 -254 -255 -256 -257 -258 -259 -260 -261 -262 -263 -264 -265 -266 -267 -268 -269 -270 -271 -272 -273 -274 -275 -276 -277 -278 -279 -280 308 0
199 -309 0
255 -309 0
256 -309 0
257 -309 0
258 -309 0
259 -309 0
260 -309 0
261 -309 0
262 -309 0
263 -309 0
264 -309 0
265 -309 0
266 -309 0
267 -309 0
268 -309 0
269 -309 0
270 -309 0
271 -309 0
272 -309 0
273 -309 0
274 -309 0
275 -309 0
276 -309 0
277 -309 0
278 -309 0
279 -309 0
280 -309 0
-199 -255 -256 -257 -258 -259 -260 -261 -262 -263 -264 -265 -266 -267 -268 -269 -270 -271 -272 -273 -274 -275 -276 -277 -278 -279 -280 309 0
200 -310 0
256 -310 0
257 -310 0
258 -310 0
259 -310 0
260 -310 0
261 -310 0
262 -310 0
263 -310 0
264 -310 0
265 -310 0
266 -310 0
267 -310 0
268 -310 0
269 -310 0
270 -310 0
271 -310 0
272 -310 0
273 -310 0
274 -310 0
275 -310 0
276 -310 0
277 -310 0
278 -310 0
279 -310 0
280 -310 0
-200 -256 -257 -258 -259 -260 -261 -262 -263 -264 -265 -266 -267 -268 -269 -270 -271 -272 -273 -274 -275 -276 -277 -278 -279 -280 310 0
201 -311 0
257 -311 0
258 -311 0
259 -311 0
260 -311 0
261 -311 0
262 -311 0
263 -311 0
264 -311 0
265 -311 0
266 -311 0
267 -311 0
268 -311 0
269 -311 0
270 -311 0
271 -311 0
272 -311 0
273 -311 0
274 -311 0
275 -311 0
276 -311 0
277 -311 0
278 -311 0
279 -311 0
280 -311 0
-201 -257 -258 -259 -260 -261 -262 -263 -264 -265 -266 -267 -268 -269 -270 -271 -272 -273 -274 -275 -276 -277 -278 -279 -280 311 0
202 -312 0
258 -312 0
259 -312 0
260 -312 0
261 -312 0
262 -312 0
263 -312 0
264 -312 0
265 -312 0
266 -312 0
267 -312 0
268 -312 0
269 -312 0
270 -312 0
271 -312 0
272 -312 0
273 -312 0
274 -312 0
275 -312 0
276 -312 0
277 -312 0
278 -312 0
279 -312 0
280 -312 0
-202 -258 -259 -260 -261 -262 -263 -264 -265 -266 -267 -268 -269 -270 -271 -272 -273 -274 -275 -276 -277 -278 -279 -280 312 0
203 -313 0
259 -313 0
260 -313 0
261 -313 0
262 -313 0
263 -313 0
264 -313 0
265 -313 0
266 -313 0
267 -313 0
268 -313 0
269 -313 0
270 -313 0
271 -313 0
272 -313 0
273 -313 0
274 -313 0
275 -313 0
276 -313 0
277 -313 0
278 -313 0
279 -313 0
280 -313 0
-203 -259 -260 -261 -262 -263 -264 -265 -266 -267 -268 -269 -270 -271 -272 -273 -274 -275 -276 -277 -278 -279 -280 313 0
204 -314 0
260 -314 0
261 -314 0
262 -314 0
263 -314 0
264 -314 0
265 -314 0
266 -314 0
267 -314 0
268 -314 0
269 -314 0
270 -314 0
271 -314 0
272 -314 0
273 -314 0
274 -314 0
275 -314 0
276 -314 0
277 -314 0
278 -314 0
279 -314 0
280 -314 0
-204 -260 -261 -262 -263 -264 -265 -266 -267 -268 -269 -270 -271 -272 -273 -274 -275 -276 -277 -278 -279 -280 314 0
205 -315 0
261 -315 0
262 -315 0
263 -315 0
264 -315 0
265 -315 0
266 -315 0
267 -315 0
268 -315 0
269 -315 0
270 -315 0
271 -315 0
272 -315 0
273 -315 0
274 -315 0
275 -315 0
276 -315 0
277 -315 0
278 -315 0
279 -315 0
280 -315 0
-205 -261 -262 -263 -264 -265 -266 -267 -268 -269 -270 -271 -272 -273 -274 -275 -276 -277 -278 -279 -280 315 0
206 -316 0
262 -316 0
263 -316 0
264 -316 0
265 -316 0
266 -316 0
267 -316 0
268 -316 0
269 -316 0
270 -316 0
271 -316 0
272 -316 0
273 -316 0
274 -316 0
275 -316 0
276 -316 0
277 -316 0
278 -316 0
279 -316 0
280 -316 0
-206 -262 -263 -264 -265 -266 -267 -268 -269 -270 -271 -272 -273 -274 -275 -276 -277 -278 -279 -280 316 0
207 -317 0
263 -317 0
264 -317 0
265 -317 0
266 -317 0
267 -317 0
268 -317 0
269 -317 0
270 -317 0
271 -317 0
272 -317 0
273 -317 0
274 -317 0
275 -317 0
276 -317 0
277 -317 0
278 -317 0
279 -317 0
280 -317 0
-207 -263 -264 -265 -266 -267 -268 -269 -270 -271 -272 -273 -274 -275 -276 -277 -278 -279 -280 317 0
208 -318 0
264 -318 0
265 -318 0
266 -318 0
267 -318 0
268 -318 0
269 -318 0
270 -318 0
271 -318 0
272 -318 0
273 -318 0
274 -318 0
275 -318 0
276 -318 0
277 -318 0
278 -318 0
279 -318 0
280 -318 0
-208 -264 -265 -266 -267 -268 -269 -270 -271 -272 -273 -274 -275 -276 -277 -278 -279 -280 318 0
209 -319 0
265 -319 0
266 -319 0
267 -319 0
268 -319 0
269 -319 0
270 -319 0
271 -319 0
272 -319 0
273 -319 0
274 -319 0
275 -319 0
276 -319 0
277 -319 0
278 -319 0
279 -319 0
280 -319 0
-209 -265 -266 -267 -268 -269 -270 -271 -272 -273 -274 -275 -276 -277 -278 -279 -280 319 0
210 -320 0
266 -320 0
267 -320 0
268 -320 0
269 -320 0
270 -320 0
271 -320 0
272 -320 0
273 -320 0
274 -320 0
275 -320 0
276 -320 0
277 -320 0
278 -320 0
279 -320 0
280 -320 0
-210 -266 -267 -268 -269 -270 -271 -272 -273 -274 -275 -276 -277 -278 -279 -280 320 0
211 -321 0
267 -321 0
268 -321 0
269 -321 0
270 -321 0
271 -321 0
272 -321 0
273 -321 0
274 -321 0
275 -321 0
276 -321 0
277 -321 0
278 -321 0
279 -321 0
280 -321 0
-211 -267 -268 -269 -270 -271 -272 -273 -274 -275 -276 -277 -278 -279 -280 321 0
212 -322 0
268 -322 0
269 -322 0
270 -322 0
271 -322 0
272 -322 0
273 -322 0
274 -322 0
275 -322 0
276 -322 0
277 -322 0
278 -322 0
279 -322 0
280 -322 0
-212 -268 -269 -270 -271 -272 -273 -274 -275 -276 -277 -278 -279 -280 322 0
213 -323 0
269 -323 0
270 -323 0
271 -323 0
272 -323 0
273 -323 0
274 -323 0
275 -323 0
276 -323 0
277 -323 0
278 -323 0
279 -323 0
280 -323 0
-213 -269 -270 -271 -272 -273 -274 -275 -276 -277 -278 -279 -280 323 0
214 -324 0
270 -324 0
271 -324 0
272 -324 0
273 -324 0
274 -324 0
275 -324 0
276 -324 0
277 -324 0
278 -324 0
279 -324 0
280 -324 0
-214 -270 -271 -272 -273 -274 -275 -276 -277 -278 -279 -280 324 0
215 -325 0
271 -325 0
272 -325 0
273 -325 0
274 -325 0
275 -325 0
276 -325 0
277 -325 0
278 -325 0
279 -325 0
280 -325 0
-215 -271 -272 -273 -274 -275 -276 -277 -278 -279 -280 325 0
216 -326 0
272 -326 0
273 -326 0
274 -326 0
275 -326 0
276 -326 0
277 -326 0
278 -326 0
279 -326 0
280 -326 0
-216 -272 -273 -274 -275 -276 -277 -278 -279 -280 326 0
217 -327 0
273 -327 0
274 -327 0
275 -327 0
276 -327 0
277 -327 0
278 -327 0
279 -327 0
280 -327 0
-217 -273 -274 -275 -276 -277 -278 -279 -280 327 0
218 -328 0
274 -328 0
275 -328 0
276 -328 0
277 -328 0
278 -328 0
279 -328 0
280 -328 0
-218 -274 -275 -276 -277 -278 -279 -280 328 0
219 -329 0
275 -329 0
276 -329 0
277 -329 0
278 -329 0
279 -329 0
280 -329 0
-219 -275 -276 -277 -278 -279 -280 329 0
220 -330 0
276 -330 0
277 -330 0
278 -330 0
279 -330 0
280 -330 0
-220 -276 -277 -278 -279 -280 330 0
221 -331 0
277 -331 0
278 -331 0
279 -331 0
280 -331 0
-221 -277 -278 -279 -280 331 0
222 -332 0
278 -332 0
279 -332 0
280 -332 0
-222 -278 -279 -280 332 0
223 -333 0
279 -333 0
280 -333 0
-223 -279 -280 333 0
224 -334 0
280 -334 0
-224 -280 334 0
225 -335 0
-225 335 0
-281 111 0
-282 111 0
-283 111 0
-284 111 0
-285 111 0
-286 111 0
-287 111 0
-288 111 0
-289 111 0
-290 111 0
-291 111 0
-292 111 0
-293 111 0
-294 111 0
-295 111 0
-296 111 0
-297 111 0
-298 111 0
-299 111 0
-300 111 0
-301 111 0
-302 111 0
-303 111 0
-304 111 0
-305 111 0
-306 111 0
-307 111 0
-308 111 0
-309 111 0
-310 111 0
-311 111 0
-312 111 0
-313 111 0
-314 111 0
-315 111 0
-316 111 0
-317 111 0
-318 111 0
-319 111 0
-320 111 0
-321 111 0
-322 111 0
-323 111 0
-324 111 0
-325 111 0
-326 111 0
-327 111 0
-328 111 0
-329 111 0
-330 111 0
-331 111 0
-332 111 0
-333 111 0
-334 111 0
-335 111 0
281 282 283 284 285 286 287 288 289 290 291 292 293 294 295 296 297 298 299 300 301 302 303 304 305 306 307 308 309 310 311 312 313 314 315 316 317 318 319 320 321 322 323 324 325 326 327 328 329 330 331 332 333 334 335 -111 0
226 -112 0
227 -112 0
228 -112 0
229 -112 0
230 -112 0
231 -112 0
232 -112 0
233 -112 0
234 -112 0
235 -112 0
236 -112 0
237 -112 0
238 -112 0
239 -112 0
240 -112 0
241 -112 0
242 -112 0
243 -112 0
244 -112 0
245 -112 0
246 -112 0
247 -112 0
248 -112 0
249 -112 0
250 -112 0
251 -112 0
252 -112 0
253 -112 0
254 -112 0
255 -112 0
256 -112 0
257 -112 0
258 -112 0
259 -112 0
260 -112 0
261 -112 0
262 -112 0
263 -112 0
264 -112 0
265 -112 0
266 -112 0
267 -112 0
268 -112 0
269 -112 0
270 -112 0
271 -112 0
272 -112 0
273 -112 0
274 -112 0
275 -112 0
276 -112 0
277 -112 0
278 -112 0
279 -112 0
280 -112 0
-226 -227 -228 -229 -230 -231 -232 -233 -234 -235 -236 -237 -238 -239 -240 -241 -242 -243 -244 -245 -246 -247 -248 -249 -250 -251 -252 -253 -254 -255 -256 -257 -258 -259 -260 -261 -262 -263 -264 -265 -266 -267 -268 -269 -270 -271 -272 -273 -274 -275 -276 -277 -278 -279 -280 112 0
-111 -113 0
-112 -113 0
111 112 113 0
